# Solution for model srl_ilp
# Objective value = 1.2748480708271684e+01
Z_000 0
Z_001 0
Z_002 1
Z_003 0
Z_100 0
Z_101 0
Z_102 1
Z_103 0
Z_110 0
Z_111 1
Z_112 0
Z_113 0
Z_120 1
Z_121 0
Z_122 0
Z_123 0
Z_200 1
Z_201 0
Z_202 0
Z_203 0
Z_210 0
Z_211 0
Z_212 1
Z_213 0
Z_220 0
Z_221 0
Z_222 0
Z_223 1
Z_300 0
Z_301 0
Z_302 1
Z_303 0
Z_310 0
Z_311 0
Z_312 0
Z_313 1
Z_400 0
Z_401 0
Z_402 1
Z_403 0
Z_410 0
Z_411 0
Z_412 0
Z_413 1
Z_420 1
Z_421 0
Z_422 0
Z_423 0
Z_500 0
Z_501 0
Z_502 1
Z_503 0
Z_510 0
Z_511 0
Z_512 0
Z_513 1
Z_520 1
Z_521 0
Z_522 0
Z_523 0
